* Signature: 0xdb73dc4d8926a023
NAME lp_typeD_162
OBJSENSE MAX
ROWS
 N  OBJ
 L  c0      
 L  c1      
 G  c2      
 G  c3      
 G  c4      
 L  c_key_upper
 G  c_key_lower
 G  _chain_constr_1
 G  _chain_constr_2
 G  _chain_constr_3
 G  _chain_constr_4
 G  _chain_cycle
COLUMNS
    x0        OBJ       8.6664497789263040e-01
    x0        c0        1.1634390111970561e+00
    x0        c1        1.4401956429127165e+00
    x0        c2        1.7917609553422205e+00
    x0        c3        9.2591943694896517e-01
    x0        c4        1.9130239532444262e+00
    x0        c_key_upper  1.87883195370984
    x0        c_key_lower  1.87883195370984
    x1        OBJ       6.1826050523336107e-01
    x1        c0        5.7269495653220659e-01
    x1        c1        9.7589518248971086e-01
    x1        c2        1.7453855082586214e+00
    x1        c3        1.0561825565959793e+00
    x1        c4        1.8473377216776261e+00
    x1        c_key_upper  1.4255191936766234e+00
    x1        c_key_lower  1.4255191936766234e+00
    x2        OBJ       1.4744304880910635e+00
    x2        c0        1.4737508519219480e+00
    x2        c1        1.1245913971738533e+00
    x2        c2        1.4847458174081332e+00
    x2        c3        1.0179171096621296e+00
    x2        c4        1.7485859242227841e+00
    x2        c_key_upper  1.4882556833339478e+00
    x2        c_key_lower  1.4882556833339478e+00
    x3        OBJ       1.1914880351812887e+00
    x3        c0        6.1432976680410967e-01
    x3        c1        1.9551029784052778e+00
    x3        c2        1.2946598567045229e+00
    x3        c3        1.5136125535765670e+00
    x3        c4        1.3062272262848633e+00
    x3        c_key_upper  1.5910074805526624e+00
    x3        c_key_lower  1.5910074805526624e+00
    x4        OBJ       1.4241460137856374e+00
    x4        c0        1.9975865668443331e+00
    x4        c1        9.9009162482992941e-01
    x4        c2        7.4699672164415243e-01
    x4        c3        5.8788519806552220e-01
    x4        c4        1.0244962708852374e+00
    x4        c_key_upper  1.5146547226308031e+00
    x4        c_key_lower  1.5146547226308031e+00
    x5        OBJ       9.7724775804848363e-01
    x5        c0        1.8611569752704449e+00
    x5        c1        1.8705690013953507e+00
    x5        c2        7.9361144388351912e-01
    x5        c3        1.4093937331525512e+00
    x5        c4        1.8081601902055275e+00
    x5        c_key_upper  1.8284933645972428e+00
    x5        c_key_lower  1.8284933645972428e+00
    x6        OBJ       1.0999978645685242e+00
    x6        c0        1.5257527211418325e+00
    x6        c1        5.3772038364324981e-01
    x6        c2        1.9890144984325642e+00
    x6        c3        7.0366290807862164e-01
    x6        c4        6.2340630140635245e-01
    x6        c_key_upper  1.1796287919983790e+00
    x6        c_key_lower  1.1796287919983790e+00
    _chain_var_0  _chain_constr_1  -1
    _chain_var_0  _chain_cycle  1
    _chain_var_1  _chain_constr_1  1
    _chain_var_1  _chain_constr_2  -1
    _chain_var_2  _chain_constr_2  1
    _chain_var_2  _chain_constr_3  -1
    _chain_var_3  _chain_constr_3  1
    _chain_var_3  _chain_constr_4  -1
    _chain_var_4  _chain_constr_4  1
    _chain_var_4  _chain_cycle  -1
RHS
    RHS1      c0        3.9092101489504380e+01
    RHS1      c1        4.2240750897066320e+01
    RHS1      c2        1.3953553324094290e+01
    RHS1      c3        1.2916094801241758e+01
    RHS1      c4        1.7585508217427240e+01
    RHS1      c_key_upper  54.5319559524975
    RHS1      c_key_lower  2.7265977976248749e+01
    RHS1      _chain_constr_1  10
    RHS1      _chain_constr_2  10
    RHS1      _chain_constr_3  10
    RHS1      _chain_constr_4  10
    RHS1      _chain_cycle  10
BOUNDS
 UP BND1      x0        10
 UP BND1      x1        10
 UP BND1      x2        10
 UP BND1      x3        10
 UP BND1      x4        10
 UP BND1      x5        10
 UP BND1      x6        10
 UP BND1      _chain_var_0  100
 UP BND1      _chain_var_1  100
 UP BND1      _chain_var_2  100
 UP BND1      _chain_var_3  100
 UP BND1      _chain_var_4  100
ENDATA
